\ This file has been generated by DOcplex
\ ENCODING=ISO-8859-1
\Problem name: random_problem.lp

Minimize
 obj: - 488 x0 - 244 x1 - 122 x2 + 400 x3 + 200 x4 + 100 x5 - 592 x6 - 296 x7
      - 148 x8 + 344 x9 + 172 x10 + 86 x11 + 112 x12 + 56 x13 + 28 x14 + [
      5888 x0^2 + 5888 x0*x1 + 2944 x0*x2 + 8832 x0*x3 + 4416 x0*x4 + 2208 x0*x5
      + 4608 x0*x6 + 2304 x0*x7 + 1152 x0*x8 + 5504 x0*x9 + 2752 x0*x10
      + 1376 x0*x11 + 6656 x0*x12 + 3328 x0*x13 + 1664 x0*x14 + 1472 x1^2
      + 1472 x1*x2 + 4416 x1*x3 + 2208 x1*x4 + 1104 x1*x5 + 2304 x1*x6
      + 1152 x1*x7 + 576 x1*x8 + 2752 x1*x9 + 1376 x1*x10 + 688 x1*x11
      + 3328 x1*x12 + 1664 x1*x13 + 832 x1*x14 + 368 x2^2 + 2208 x2*x3
      + 1104 x2*x4 + 552 x2*x5 + 1152 x2*x6 + 576 x2*x7 + 288 x2*x8 + 1376 x2*x9
      + 688 x2*x10 + 344 x2*x11 + 1664 x2*x12 + 832 x2*x13 + 416 x2*x14
      + 6464 x3^2 + 6464 x3*x4 + 3232 x3*x5 + 2816 x3*x6 + 1408 x3*x7
      + 704 x3*x8 + 5120 x3*x9 + 2560 x3*x10 + 1280 x3*x11 + 5248 x3*x12
      + 2624 x3*x13 + 1312 x3*x14 + 1616 x4^2 + 1616 x4*x5 + 1408 x4*x6
      + 704 x4*x7 + 352 x4*x8 + 2560 x4*x9 + 1280 x4*x10 + 640 x4*x11
      + 2624 x4*x12 + 1312 x4*x13 + 656 x4*x14 + 404 x5^2 + 704 x5*x6
      + 352 x5*x7 + 176 x5*x8 + 1280 x5*x9 + 640 x5*x10 + 320 x5*x11
      + 1312 x5*x12 + 656 x5*x13 + 328 x5*x14 + 4288 x6^2 + 4288 x6*x7
      + 2144 x6*x8 + 6144 x6*x9 + 3072 x6*x10 + 1536 x6*x11 + 3328 x6*x12
      + 1664 x6*x13 + 832 x6*x14 + 1072 x7^2 + 1072 x7*x8 + 3072 x7*x9
      + 1536 x7*x10 + 768 x7*x11 + 1664 x7*x12 + 832 x7*x13 + 416 x7*x14
      + 268 x8^2 + 1536 x8*x9 + 768 x8*x10 + 384 x8*x11 + 832 x8*x12
      + 416 x8*x13 + 208 x8*x14 + 8576 x9^2 + 8576 x9*x10 + 4288 x9*x11
      + 640 x9*x12 + 320 x9*x13 + 160 x9*x14 + 2144 x10^2 + 2144 x10*x11
      + 320 x10*x12 + 160 x10*x13 + 80 x10*x14 + 536 x11^2 + 160 x11*x12
      + 80 x11*x13 + 40 x11*x14 + 3904 x12^2 + 3904 x12*x13 + 1952 x12*x14
      + 976 x13^2 + 976 x13*x14 + 244 x14^2 ]/2
Subject To
 c0: 4 x0 + 2 x1 + x2 + 4 x3 + 2 x4 + x5 + 4 x6 + 2 x7 + x8 + 4 x9 + 2 x10 + x11
     + 4 x12 + 2 x13 + x14 = 7

Bounds
 0 <= x0 <= 1
 0 <= x1 <= 1
 0 <= x2 <= 1
 0 <= x3 <= 1
 0 <= x4 <= 1
 0 <= x5 <= 1
 0 <= x6 <= 1
 0 <= x7 <= 1
 0 <= x8 <= 1
 0 <= x9 <= 1
 0 <= x10 <= 1
 0 <= x11 <= 1
 0 <= x12 <= 1
 0 <= x13 <= 1
 0 <= x14 <= 1

Binaries
 x0 x1 x2 x3 x4 x5 x6 x7 x8 x9 x10 x11 x12 x13 x14
End
